units         lj                   # Use reduced Lennard-Jones units
atom_style    atomic               # Simple atomic interactions

# ---------- Define Variables (set via command line) ----------
variable      seed index 12345     # Seed provided via command line
variable      run_steps index 100000  # Run steps provided via command line
variable      particles index 108 	
variable      eq_steps index 50000

variable      N equal ${particles}           # Number of particles
variable      rho_mass equal 0.80726    # Mass density in reduced LJ units
variable      L equal (v_N/v_rho_mass)^(1.0/3.0)  # Cubic box length

# ---------- Create Simulation Box ----------
region        box block 0 ${L} 0 ${L} 0 ${L} units box
create_box    1 box

# ---------- Place Atoms in Box ----------
create_atoms  1 random ${N} ${seed} box

print         "Computed Box Size (L) in LJ Units: ${L}"

# ---------- Define Lennard-Jones Interactions ----------
pair_style    lj/cut 2.5
pair_coeff    1 1 1.0 1.0 2.5
neighbor      0.3 bin
neigh_modify  every 1 delay 0 check yes
mass          1 1.0

# ---------- Minimization and Equilibration ----------
minimize 1.0e-6 1.0e-8 1000 10000
velocity all create 0.7833 ${seed} mom yes rot yes dist gaussian
fix     equil all nvt temp 0.7833 0.7833 1.0
timestep 0.01
thermo_style custom step temp pe etotal press vol
thermo  10000
run     ${eq_steps}
unfix   equil

# --------- Resetting time step ----------
reset_timestep	0
# ---------- Production Run (NVE Ensemble) ----------
fix           1 all nve
timestep      0.01
thermo_modify lost ignore flush yes
thermo_style  custom step temp pe ke etotal press density
thermo        10000

fix thermo_output all print 1000 "$(step) $(temp) $(pe) $(ke) $(etotal) $(press) $(density)" file thermo_output_${seed}.txt screen no
fix energy_output all print 1000 "$(etotal) $(ke)" file energy_output_${seed}.txt screen no

# ---------- Compute Pair Correlation Function g(r) over entire trajectory ----------
compute       myRDF all rdf 100
fix           RDF_output all ave/time 100 10 1000 c_myRDF[*] file rdf_output_${seed}.txt mode vector

# ---------- Compute Mean Square Displacement (MSD) ----------
compute       MSD all msd
fix           MSD_output all ave/time 100 10 1000 c_MSD[4] file msd_output_${seed}.txt mode scalar

# ---------- Compute Velocity Autocorrelation Function (VACF) over entire trajectory ----------
compute       VACF all vacf
fix           VACF_output all ave/correlate 1 100 100 c_VACF[1] type auto file vacf_output_${seed}.txt ave running overwrite

# ---------- Run Simulation ----------
run           ${run_steps}

